min: c;

c = 3.32427010274222 * u5_t4_h2 + 3.32427010274222 * u5_t7_h2 + 3.47488834944857 * u5_t4_h3 + 3.47488834944857 * u5_t7_h3 + 3.66229909806977 * u5_t1_h4 + 3.66229909806977 * u5_t3_h4 + 3.66229909806977 * u5_t4_h4 + 3.66229909806977 * u5_t7_h4 + 3.23576560529748 * u5_t1_h5 + 3.23576560529748 * u5_t3_h5 + 3.23576560529748 * u5_t4_h5 + 3.23576560529748 * u5_t7_h5 + 3.57135646700725 * u5_t1_h6 + 3.57135646700725 * u5_t3_h6 + 3.57135646700725 * u5_t4_h6 + 3.57135646700725 * u5_t6_h6 + 3.57135646700725 * u5_t7_h6 + 3.6540916986923 * u5_t1_h7 + 3.6540916986923 * u5_t3_h7 + 3.6540916986923 * u5_t4_h7 + 3.6540916986923 * u5_t6_h7 + 5.01082579597824 * u5_t1_h8 + 5.01082579597824 * u5_t3_h8 + 5.01082579597824 * u5_t4_h8 + 5.01082579597824 * u5_t6_h8 + 4.81437261931057 * u5_t1_h9 + 4.81437261931057 * u5_t3_h9 + 4.81437261931057 * u5_t4_h9 + 4.81437261931057 * u5_t6_h9 + 5.50655696179536 * u5_t1_h10 + 5.50655696179536 * u5_t3_h10 + 5.50655696179536 * u5_t4_h10 + 5.50655696179536 * u5_t6_h10 + 4.30532398455938 * u5_t1_h11 + 4.30532398455938 * u5_t3_h11 + 4.30532398455938 * u5_t4_h11 + 4.30532398455938 * u5_t6_h11 + 5.84725104971565 * u5_t1_h12 + 5.84725104971565 * u5_t3_h12 + 5.84725104971565 * u5_t4_h12 + 5.84725104971565 * u5_t6_h12 + 4.31038989729462 * u5_t1_h13 + 4.31038989729462 * u5_t3_h13 + 4.31038989729462 * u5_t4_h13 + 4.31038989729462 * u5_t6_h13 + 4.31038989729462 * u5_t8_h13 + 4.95487036867434 * u5_t1_h14 + 4.95487036867434 * u5_t3_h14 + 4.95487036867434 * u5_t4_h14 + 4.95487036867434 * u5_t6_h14 + 4.95487036867434 * u5_t8_h14 + 6.33427204049809 * u5_t1_h15 + 6.33427204049809 * u5_t3_h15 + 6.33427204049809 * u5_t4_h15 + 6.33427204049809 * u5_t6_h15 + 6.33427204049809 * u5_t8_h15 + 6.33427204049809 * u5_t9_h15 + 5.86110680161772 * u5_t1_h16 + 5.86110680161772 * u5_t3_h16 + 5.86110680161772 * u5_t4_h16 + 5.86110680161772 * u5_t5_h16 + 5.86110680161772 * u5_t6_h16 + 5.86110680161772 * u5_t8_h16 + 5.86110680161772 * u5_t9_h16 + 5.88678624909748 * u5_t1_h17 + 5.88678624909748 * u5_t5_h17 + 5.88678624909748 * u5_t6_h17 + 5.88678624909748 * u5_t8_h17 + 5.88678624909748 * u5_t9_h17 + 5.88678624909748 * u5_t10_h17 + 6.32435795812129 * u5_t1_h18 + 6.32435795812129 * u5_t2_h18 + 6.32435795812129 * u5_t5_h18 + 6.32435795812129 * u5_t6_h18 + 6.32435795812129 * u5_t9_h18 + 6.32435795812129 * u5_t10_h18 + 5.86814685315291 * u5_t1_h19 + 5.86814685315291 * u5_t2_h19 + 5.86814685315291 * u5_t5_h19 + 5.86814685315291 * u5_t9_h19 + 5.86814685315291 * u5_t10_h19 + 5.47355172862004 * u5_t1_h20 + 5.47355172862004 * u5_t2_h20 + 5.47355172862004 * u5_t5_h20 + 5.47355172862004 * u5_t9_h20 + 5.47355172862004 * u5_t10_h20 + 5.5935682483188 * u5_t2_h21 + 5.5935682483188 * u5_t5_h21 + 5.5935682483188 * u5_t9_h21 + 5.5935682483188 * u5_t10_h21 + 5.89200502972277 * u5_t2_h22 + 5.89200502972277 * u5_t5_h22 + 5.89200502972277 * u5_t9_h22 + 5.89200502972277 * u5_t10_h22 + 4.96980910226514 * u5_t5_h23 + 4.96980910226514 * u5_t9_h23 + 4.96980910226514 * u5_t10_h23;
0 <= u5_t1_h4 <= 1;
0 <= u5_t1_h5 <= 1;
0 <= u5_t1_h6 <= 1;
0 <= u5_t1_h7 <= 1;
0 <= u5_t1_h8 <= 1;
0 <= u5_t1_h9 <= 1;
0 <= u5_t1_h10 <= 1;
0 <= u5_t1_h11 <= 1;
0 <= u5_t1_h12 <= 1;
0 <= u5_t1_h13 <= 1;
0 <= u5_t1_h14 <= 1;
0 <= u5_t1_h15 <= 1;
0 <= u5_t1_h16 <= 1;
0 <= u5_t1_h17 <= 1;
0 <= u5_t1_h18 <= 1;
0 <= u5_t1_h19 <= 1;
0 <= u5_t1_h20 <= 1;
u5_t1_h4 + u5_t1_h5 + u5_t1_h6 + u5_t1_h7 + u5_t1_h8 + u5_t1_h9 + u5_t1_h10 + u5_t1_h11 + u5_t1_h12 + u5_t1_h13 + u5_t1_h14 + u5_t1_h15 + u5_t1_h16 + u5_t1_h17 + u5_t1_h18 + u5_t1_h19 + u5_t1_h20 = 1;
0 <= u5_t2_h18 <= 1;
0 <= u5_t2_h19 <= 1;
0 <= u5_t2_h20 <= 1;
0 <= u5_t2_h21 <= 1;
0 <= u5_t2_h22 <= 1;
u5_t2_h18 + u5_t2_h19 + u5_t2_h20 + u5_t2_h21 + u5_t2_h22 = 3;
0 <= u5_t3_h4 <= 1;
0 <= u5_t3_h5 <= 1;
0 <= u5_t3_h6 <= 1;
0 <= u5_t3_h7 <= 1;
0 <= u5_t3_h8 <= 1;
0 <= u5_t3_h9 <= 1;
0 <= u5_t3_h10 <= 1;
0 <= u5_t3_h11 <= 1;
0 <= u5_t3_h12 <= 1;
0 <= u5_t3_h13 <= 1;
0 <= u5_t3_h14 <= 1;
0 <= u5_t3_h15 <= 1;
0 <= u5_t3_h16 <= 1;
u5_t3_h4 + u5_t3_h5 + u5_t3_h6 + u5_t3_h7 + u5_t3_h8 + u5_t3_h9 + u5_t3_h10 + u5_t3_h11 + u5_t3_h12 + u5_t3_h13 + u5_t3_h14 + u5_t3_h15 + u5_t3_h16 = 1;
0 <= u5_t4_h2 <= 1;
0 <= u5_t4_h3 <= 1;
0 <= u5_t4_h4 <= 1;
0 <= u5_t4_h5 <= 1;
0 <= u5_t4_h6 <= 1;
0 <= u5_t4_h7 <= 1;
0 <= u5_t4_h8 <= 1;
0 <= u5_t4_h9 <= 1;
0 <= u5_t4_h10 <= 1;
0 <= u5_t4_h11 <= 1;
0 <= u5_t4_h12 <= 1;
0 <= u5_t4_h13 <= 1;
0 <= u5_t4_h14 <= 1;
0 <= u5_t4_h15 <= 1;
0 <= u5_t4_h16 <= 1;
u5_t4_h2 + u5_t4_h3 + u5_t4_h4 + u5_t4_h5 + u5_t4_h6 + u5_t4_h7 + u5_t4_h8 + u5_t4_h9 + u5_t4_h10 + u5_t4_h11 + u5_t4_h12 + u5_t4_h13 + u5_t4_h14 + u5_t4_h15 + u5_t4_h16 = 3;
0 <= u5_t5_h16 <= 1;
0 <= u5_t5_h17 <= 1;
0 <= u5_t5_h18 <= 1;
0 <= u5_t5_h19 <= 1;
0 <= u5_t5_h20 <= 1;
0 <= u5_t5_h21 <= 1;
0 <= u5_t5_h22 <= 1;
0 <= u5_t5_h23 <= 1;
u5_t5_h16 + u5_t5_h17 + u5_t5_h18 + u5_t5_h19 + u5_t5_h20 + u5_t5_h21 + u5_t5_h22 + u5_t5_h23 = 2;
0 <= u5_t6_h6 <= 1;
0 <= u5_t6_h7 <= 1;
0 <= u5_t6_h8 <= 1;
0 <= u5_t6_h9 <= 1;
0 <= u5_t6_h10 <= 1;
0 <= u5_t6_h11 <= 1;
0 <= u5_t6_h12 <= 1;
0 <= u5_t6_h13 <= 1;
0 <= u5_t6_h14 <= 1;
0 <= u5_t6_h15 <= 1;
0 <= u5_t6_h16 <= 1;
0 <= u5_t6_h17 <= 1;
0 <= u5_t6_h18 <= 1;
u5_t6_h6 + u5_t6_h7 + u5_t6_h8 + u5_t6_h9 + u5_t6_h10 + u5_t6_h11 + u5_t6_h12 + u5_t6_h13 + u5_t6_h14 + u5_t6_h15 + u5_t6_h16 + u5_t6_h17 + u5_t6_h18 = 2;
0 <= u5_t7_h2 <= 1;
0 <= u5_t7_h3 <= 1;
0 <= u5_t7_h4 <= 1;
0 <= u5_t7_h5 <= 1;
0 <= u5_t7_h6 <= 1;
u5_t7_h2 + u5_t7_h3 + u5_t7_h4 + u5_t7_h5 + u5_t7_h6 = 1;
0 <= u5_t8_h13 <= 1;
0 <= u5_t8_h14 <= 1;
0 <= u5_t8_h15 <= 1;
0 <= u5_t8_h16 <= 1;
0 <= u5_t8_h17 <= 1;
u5_t8_h13 + u5_t8_h14 + u5_t8_h15 + u5_t8_h16 + u5_t8_h17 = 3;
0 <= u5_t9_h15 <= 1;
0 <= u5_t9_h16 <= 1;
0 <= u5_t9_h17 <= 1;
0 <= u5_t9_h18 <= 1;
0 <= u5_t9_h19 <= 1;
0 <= u5_t9_h20 <= 1;
0 <= u5_t9_h21 <= 1;
0 <= u5_t9_h22 <= 1;
0 <= u5_t9_h23 <= 1;
u5_t9_h15 + u5_t9_h16 + u5_t9_h17 + u5_t9_h18 + u5_t9_h19 + u5_t9_h20 + u5_t9_h21 + u5_t9_h22 + u5_t9_h23 = 1;
0 <= u5_t10_h17 <= 1;
0 <= u5_t10_h18 <= 1;
0 <= u5_t10_h19 <= 1;
0 <= u5_t10_h20 <= 1;
0 <= u5_t10_h21 <= 1;
0 <= u5_t10_h22 <= 1;
0 <= u5_t10_h23 <= 1;
u5_t10_h17 + u5_t10_h18 + u5_t10_h19 + u5_t10_h20 + u5_t10_h21 + u5_t10_h22 + u5_t10_h23 = 1;
